116
2
3, 59, 59, 77, 27, 74, 4, 80, 77, 14, 70, 47, 88, 86, 39, 41, 9, 92, 17, 36, 8, 54, 54, 7
27, 100, 58, 83, 34, 23, 65, 32, 7, 35, 9, 16, 17, 85, 87, 6, 58, 69, 9, 64, 88, 79, 13, 55
2, 1, 1, 2, 2, 2, 2, 2, 2, 2, 2, 2, 1, 2, 1, 1, 1, 1, 2, 1, 2, 1, 2, 2